CPXPARAM_MIP_Tolerances_MIPGap                   0
Lazy constraint(s) or lazy constraint callback is present.
    Disabling dual reductions (CPX_PARAM_REDUCE) in presolve.
    Disabling non-linear reductions (CPX_PARAM_PRELINEAR) in presolve.
         Disabling repeat represolve because of lazy constraint/incumbent callback.
Tried aggregator 1 time.
MIP Presolve eliminated 1935 rows and 16 columns.
MIP Presolve modified 15 coefficients.
Reduced MIP has 371 rows, 1976 columns, and 786 nonzeros.
Reduced MIP has 1667 binaries, 0 generals, 0 SOSs, and 0 indicators.
Presolve time = 0.00 sec. (1.28 ticks)
Probing time = 0.00 sec. (0.31 ticks)
Clique table members: 59.
MIP emphasis: balance optimality and feasibility.
MIP search method: traditional branch-and-cut.
Parallel mode: none, using 1 thread.
Root relaxation solution time = 0.00 sec. (1.02 ticks)

        Nodes                                         Cuts/
   Node  Left     Objective  IInf  Best Integer    Best Bound    ItCnt     Gap         Variable B NodeID Parent  Depth

      0     0       16.0000    22                     16.0000       22         
      0     0       21.0000     3                    Cuts: 53       65         
      0     0       21.0000    11                     Cuts: 3       75         
*     0+    0                           51.0000       21.0000            58.82%
*     0+    0                           21.0000       21.0000             0.00%
      0     0        cutoff             21.0000       21.0000       75    0.00%                        0             0
Elapsed time = 0.13 sec. (33.89 ticks, tree = 0.01 MB, solutions = 2)

Clique cuts applied:  27
Mixed integer rounding cuts applied:  7
Gomory fractional cuts applied:  1
User cuts applied:  122

Root node processing (before b&c):
  Real time             =    0.13 sec. (33.99 ticks)
Sequential b&c:
  Real time             =    0.00 sec. (0.00 ticks)
                          ------------
Total (root+branch&cut) =    0.13 sec. (33.99 ticks)
